(set-logic QF_BV)

(declare-const __ESBMC_ptr_obj_start_0 (_ BitVec 64))

(declare-const __ESBMC_ptr_obj_end_0 (_ BitVec 64))

(declare-const __ESBMC_ptr_obj_start_1 (_ BitVec 64))

(declare-const __ESBMC_ptr_obj_end_1 (_ BitVec 64))

(declare-const |smt_conv::__ESBMC_ptr_addr_range_0..start0| (_ BitVec 64))

(declare-const |smt_conv::__ESBMC_ptr_addr_range_0..end0| (_ BitVec 64))

(declare-const |smt_conv::__ESBMC_ptr_addr_range_1..start0| (_ BitVec 64))

(declare-const |smt_conv::__ESBMC_ptr_addr_range_1..end0| (_ BitVec 64))

(declare-const |smt_conv::smt_conv::collate_array_vals::3..start0| (_ BitVec 64))

(declare-const |smt_conv::smt_conv::collate_array_vals::3..end0| (_ BitVec 64))

(declare-const |smt_conv::smt_conv::collate_array_vals::4..start0| (_ BitVec 64))

(declare-const |smt_conv::smt_conv::collate_array_vals::4..end0| (_ BitVec 64))

(declare-const |smt_conv::smt_conv::collate_array_vals::7..start0| (_ BitVec 64))

(declare-const |smt_conv::smt_conv::collate_array_vals::7..end0| (_ BitVec 64))

(declare-const |c:@F@main::$tmp::return_value$___VERIFIER_nondet_int$1?1!0&0#1| (_ BitVec 32))

(declare-const |nondet$symex::nondet372| (_ BitVec 32))

(declare-const |c:trex04.c@686@F@main@x?1!0&0#1| (_ BitVec 32))

(declare-const |goto_symex::guard?0!0&0#1| (_ BitVec 1))

(declare-const |c:@F@main::$tmp::return_value$___VERIFIER_nondet_bool$2?1!0&0#1| (_ BitVec 1))

(declare-const |nondet$symex::nondet373| (_ BitVec 1))

(declare-const |c:trex04.c@771@F@main@c1?1!0&0#1| (_ BitVec 1))

(declare-const |c:@F@main::$tmp::return_value$___VERIFIER_nondet_bool$3?1!0&0#1| (_ BitVec 1))

(declare-const |nondet$symex::nondet374| (_ BitVec 1))

(declare-const |c:trex04.c@771@F@main@c2?1!0&0#1| (_ BitVec 1))

(declare-const |c:trex04.c@673@F@main@d?1!0&0#3| (_ BitVec 32))

(declare-const |c:trex04.c@771@F@main@c1?1!0&0#2| (_ BitVec 1))

(declare-const |nondet$symex::nondet377| (_ BitVec 1))

(declare-const |c:trex04.c@771@F@main@c2?1!0&0#2| (_ BitVec 1))

(declare-const |nondet$symex::nondet378| (_ BitVec 1))

(declare-const |c:trex04.c@673@F@main@d?1!0&0#4| (_ BitVec 32))

(declare-const |c:trex04.c@673@F@main@d?1!0&0#5| (_ BitVec 32))

(declare-const |c:trex04.c@686@F@main@x?1!0&0#2| (_ BitVec 32))

(declare-const |nondet$symex::nondet381| (_ BitVec 32))

(declare-const |goto_symex::guard?0!0&0#2| (_ BitVec 1))

(declare-const |c:trex04.c@686@F@main@x?1!0&0#3| (_ BitVec 32))

(declare-const |goto_symex::guard?0!0&0#3| (_ BitVec 1))

(declare-const |c:trex04.c@686@F@main@x?1!0&0#4| (_ BitVec 32))

(declare-const |goto_symex::guard?0!0&0#4| (_ BitVec 1))

(declare-const |c:trex04.c@686@F@main@x?1!0&0#5| (_ BitVec 32))

(declare-const |goto_symex::guard?0!0&0#5| (_ BitVec 1))

(declare-const |c:trex04.c@686@F@main@x?1!0&0#6| (_ BitVec 32))

(declare-const |goto_symex::guard?0!0&0#6| (_ BitVec 1))

(declare-const |c:trex04.c@686@F@main@x?1!0&0#7| (_ BitVec 32))

(declare-const |goto_symex::guard?0!0&0#7| (_ BitVec 1))

(declare-const |c:trex04.c@686@F@main@x?1!0&0#8| (_ BitVec 32))

(declare-const |goto_symex::guard?0!0&0#8| (_ BitVec 1))

(declare-const |c:trex04.c@686@F@main@x?1!0&0#9| (_ BitVec 32))

(declare-const |goto_symex::guard?0!0&0#9| (_ BitVec 1))

(declare-const |c:trex04.c@686@F@main@x?1!0&0#10| (_ BitVec 32))

(declare-const |goto_symex::guard?0!0&0#10| (_ BitVec 1))

(declare-const |c:trex04.c@686@F@main@x?1!0&0#11| (_ BitVec 32))

(declare-const |goto_symex::guard?0!0&0#11| (_ BitVec 1))

(declare-const |c:trex04.c@686@F@main@x?1!0&0#12| (_ BitVec 32))

(declare-const |goto_symex::guard?0!0&0#12| (_ BitVec 1))

(declare-const |c:trex04.c@686@F@main@x?1!0&0#13| (_ BitVec 32))

(declare-const |goto_symex::guard?0!0&0#13| (_ BitVec 1))

(declare-const |c:trex04.c@686@F@main@x?1!0&0#14| (_ BitVec 32))

(declare-const |goto_symex::guard?0!0&0#14| (_ BitVec 1))

(declare-const |c:trex04.c@686@F@main@x?1!0&0#15| (_ BitVec 32))

(declare-const |goto_symex::guard?0!0&0#15| (_ BitVec 1))

(declare-const |c:trex04.c@686@F@main@x?1!0&0#16| (_ BitVec 32))

(declare-const |c:trex04.c@686@F@main@x?1!0&0#17| (_ BitVec 32))

(declare-const |c:trex04.c@686@F@main@x?1!0&0#18| (_ BitVec 32))

(declare-const |c:trex04.c@686@F@main@x?1!0&0#19| (_ BitVec 32))

(declare-const |c:trex04.c@686@F@main@x?1!0&0#20| (_ BitVec 32))

(declare-const |c:trex04.c@686@F@main@x?1!0&0#21| (_ BitVec 32))

(declare-const |c:trex04.c@686@F@main@x?1!0&0#22| (_ BitVec 32))

(declare-const |c:trex04.c@686@F@main@x?1!0&0#23| (_ BitVec 32))

(declare-const |c:trex04.c@686@F@main@x?1!0&0#24| (_ BitVec 32))

(declare-const |c:trex04.c@686@F@main@x?1!0&0#25| (_ BitVec 32))

(declare-const |c:trex04.c@686@F@main@x?1!0&0#26| (_ BitVec 32))

(declare-const |c:trex04.c@686@F@main@x?1!0&0#27| (_ BitVec 32))

(declare-const |c:trex04.c@686@F@main@x?1!0&0#28| (_ BitVec 32))

(declare-const |c:trex04.c@686@F@main@x?1!0&0#29| (_ BitVec 32))

(declare-const |c:trex04.c@686@F@main@x?1!0&0#30| (_ BitVec 32))

(declare-const |c:trex04.c@364@F@__VERIFIER_assert@cond?1!0&0#1| (_ BitVec 32))

(declare-const |goto_symex::guard?0!0&0#16| (_ BitVec 1))

(declare-const |execution_statet::guard_exec?0!0| (_ BitVec 1))

(define-fun $e1 () Bool 

 (and 

  (not 

   (bvslt |c:trex04.c@686@F@main@x?1!0&0#1| #b11111111111100001011110111000000)) 

  (not 

   (bvslt #b00000000000011110100001001000000 |c:trex04.c@686@F@main@x?1!0&0#1|))))

(define-fun $e2 () Bool 

 (bvslt #b00000000000000000000000000000000 |c:trex04.c@686@F@main@x?1!0&0#2|))

(define-fun $e3 () (_ BitVec 1) 

 (bvand 

  (bvnot |goto_symex::guard?0!0&0#1|) |goto_symex::guard?0!0&0#2|))

(define-fun $e4 () (_ BitVec 1) 

 (bvand $e3 |goto_symex::guard?0!0&0#3|))

(define-fun $e5 () (_ BitVec 1) 

 (bvand $e4 |goto_symex::guard?0!0&0#4|))

(define-fun $e6 () (_ BitVec 1) 

 (bvand $e5 |goto_symex::guard?0!0&0#5|))

(define-fun $e7 () (_ BitVec 1) 

 (bvand $e6 |goto_symex::guard?0!0&0#6|))

(define-fun $e8 () (_ BitVec 1) 

 (bvand $e7 |goto_symex::guard?0!0&0#7|))

(define-fun $e9 () (_ BitVec 1) 

 (bvand $e8 |goto_symex::guard?0!0&0#8|))

(define-fun $e10 () (_ BitVec 1) 

 (bvand $e9 |goto_symex::guard?0!0&0#9|))

(define-fun $e11 () (_ BitVec 1) 

 (bvand $e10 |goto_symex::guard?0!0&0#10|))

(define-fun $e12 () (_ BitVec 1) 

 (bvand $e11 |goto_symex::guard?0!0&0#11|))

(define-fun $e13 () (_ BitVec 1) 

 (bvand $e12 |goto_symex::guard?0!0&0#12|))

(define-fun $e14 () (_ BitVec 1) 

 (bvand $e13 |goto_symex::guard?0!0&0#13|))

(define-fun $e15 () (_ BitVec 1) 

 (bvand $e14 |goto_symex::guard?0!0&0#14|))

(define-fun $e16 () Bool 

 (= #b00000000000000000000000000000000 |c:trex04.c@364@F@__VERIFIER_assert@cond?1!0&0#1|))

(assert 

 (= __ESBMC_ptr_obj_start_0 #b0000000000000000000000000000000000000000000000000000000000000000))

(assert 

 (= #b0000000000000000000000000000000000000000000000000000000000000000 __ESBMC_ptr_obj_end_0))

(assert 

 (= __ESBMC_ptr_obj_start_1 #b0000000000000000000000000000000000000000000000000000000000000001))

(assert 

 (= #b1111111111111111111111111111111111111111111111111111111111111111 __ESBMC_ptr_obj_end_1))

(assert 

 (= __ESBMC_ptr_obj_end_0 |smt_conv::__ESBMC_ptr_addr_range_0..end0|))

(assert 

 (= __ESBMC_ptr_obj_start_0 |smt_conv::__ESBMC_ptr_addr_range_0..start0|))

(assert 

 (= __ESBMC_ptr_obj_end_1 |smt_conv::__ESBMC_ptr_addr_range_1..end0|))

(assert 

 (= __ESBMC_ptr_obj_start_1 |smt_conv::__ESBMC_ptr_addr_range_1..start0|))

(assert 

 (= |smt_conv::smt_conv::collate_array_vals::3..end0| |smt_conv::smt_conv::collate_array_vals::4..end0|))

(assert 

 (= |smt_conv::smt_conv::collate_array_vals::3..start0| |smt_conv::smt_conv::collate_array_vals::4..start0|))

(assert 

 (= __ESBMC_ptr_obj_end_0 |smt_conv::smt_conv::collate_array_vals::7..end0|))

(assert 

 (= __ESBMC_ptr_obj_start_0 |smt_conv::smt_conv::collate_array_vals::7..start0|))

(assert 

 (= |c:@F@main::$tmp::return_value$___VERIFIER_nondet_int$1?1!0&0#1| |nondet$symex::nondet372|))

(assert 

 (= |c:@F@main::$tmp::return_value$___VERIFIER_nondet_int$1?1!0&0#1| |c:trex04.c@686@F@main@x?1!0&0#1|))

(assert 

 (= |goto_symex::guard?0!0&0#1| 

  (bvnot 

   (ite $e1 #b1 #b0))))

(assert 

 (= |c:@F@main::$tmp::return_value$___VERIFIER_nondet_bool$2?1!0&0#1| |nondet$symex::nondet373|))

(assert 

 (= |c:@F@main::$tmp::return_value$___VERIFIER_nondet_bool$2?1!0&0#1| |c:trex04.c@771@F@main@c1?1!0&0#1|))

(assert 

 (= |c:@F@main::$tmp::return_value$___VERIFIER_nondet_bool$3?1!0&0#1| |nondet$symex::nondet374|))

(assert 

 (= |c:@F@main::$tmp::return_value$___VERIFIER_nondet_bool$3?1!0&0#1| |c:trex04.c@771@F@main@c2?1!0&0#1|))

(assert 

 (= |c:trex04.c@673@F@main@d?1!0&0#3| 

  (ite 

   (= #b1 |c:trex04.c@771@F@main@c1?1!0&0#1|) #b00000000000000000000000000000000 #b00000000000000000000000000000001)))

(assert 

 (= |c:trex04.c@771@F@main@c1?1!0&0#2| |nondet$symex::nondet377|))

(assert 

 (= |c:trex04.c@771@F@main@c2?1!0&0#2| |nondet$symex::nondet378|))

(assert 

 (= |c:trex04.c@673@F@main@d?1!0&0#4| 

  (bvadd #b11111111111111111111111111111111 |c:trex04.c@673@F@main@d?1!0&0#3|)))

(assert 

 (= |c:trex04.c@673@F@main@d?1!0&0#5| 

  (ite 

   (= #b1 |c:trex04.c@771@F@main@c2?1!0&0#2|) |c:trex04.c@673@F@main@d?1!0&0#4| |c:trex04.c@673@F@main@d?1!0&0#3|)))

(assert 

 (= |c:trex04.c@686@F@main@x?1!0&0#2| |nondet$symex::nondet381|))

(assert 

 (= 

  (ite $e2 #b1 #b0) |goto_symex::guard?0!0&0#2|))

(assert 

 (= |c:trex04.c@686@F@main@x?1!0&0#2| 

  (bvadd |c:trex04.c@673@F@main@d?1!0&0#5| |c:trex04.c@686@F@main@x?1!0&0#3|)))

(assert 

 (= |goto_symex::guard?0!0&0#3| 

  (ite 

   (bvslt #b00000000000000000000000000000000 |c:trex04.c@686@F@main@x?1!0&0#3|) #b1 #b0)))

(assert 

 (= |c:trex04.c@686@F@main@x?1!0&0#3| 

  (bvadd |c:trex04.c@673@F@main@d?1!0&0#5| |c:trex04.c@686@F@main@x?1!0&0#4|)))

(assert 

 (= |goto_symex::guard?0!0&0#4| 

  (ite 

   (bvslt #b00000000000000000000000000000000 |c:trex04.c@686@F@main@x?1!0&0#4|) #b1 #b0)))

(assert 

 (= |c:trex04.c@686@F@main@x?1!0&0#4| 

  (bvadd |c:trex04.c@673@F@main@d?1!0&0#5| |c:trex04.c@686@F@main@x?1!0&0#5|)))

(assert 

 (= |goto_symex::guard?0!0&0#5| 

  (ite 

   (bvslt #b00000000000000000000000000000000 |c:trex04.c@686@F@main@x?1!0&0#5|) #b1 #b0)))

(assert 

 (= |c:trex04.c@686@F@main@x?1!0&0#5| 

  (bvadd |c:trex04.c@673@F@main@d?1!0&0#5| |c:trex04.c@686@F@main@x?1!0&0#6|)))

(assert 

 (= |goto_symex::guard?0!0&0#6| 

  (ite 

   (bvslt #b00000000000000000000000000000000 |c:trex04.c@686@F@main@x?1!0&0#6|) #b1 #b0)))

(assert 

 (= |c:trex04.c@686@F@main@x?1!0&0#6| 

  (bvadd |c:trex04.c@673@F@main@d?1!0&0#5| |c:trex04.c@686@F@main@x?1!0&0#7|)))

(assert 

 (= |goto_symex::guard?0!0&0#7| 

  (ite 

   (bvslt #b00000000000000000000000000000000 |c:trex04.c@686@F@main@x?1!0&0#7|) #b1 #b0)))

(assert 

 (= |c:trex04.c@686@F@main@x?1!0&0#7| 

  (bvadd |c:trex04.c@673@F@main@d?1!0&0#5| |c:trex04.c@686@F@main@x?1!0&0#8|)))

(assert 

 (= |goto_symex::guard?0!0&0#8| 

  (ite 

   (bvslt #b00000000000000000000000000000000 |c:trex04.c@686@F@main@x?1!0&0#8|) #b1 #b0)))

(assert 

 (= |c:trex04.c@686@F@main@x?1!0&0#8| 

  (bvadd |c:trex04.c@673@F@main@d?1!0&0#5| |c:trex04.c@686@F@main@x?1!0&0#9|)))

(assert 

 (= |goto_symex::guard?0!0&0#9| 

  (ite 

   (bvslt #b00000000000000000000000000000000 |c:trex04.c@686@F@main@x?1!0&0#9|) #b1 #b0)))

(assert 

 (= |c:trex04.c@686@F@main@x?1!0&0#9| 

  (bvadd |c:trex04.c@673@F@main@d?1!0&0#5| |c:trex04.c@686@F@main@x?1!0&0#10|)))

(assert 

 (= |goto_symex::guard?0!0&0#10| 

  (ite 

   (bvslt #b00000000000000000000000000000000 |c:trex04.c@686@F@main@x?1!0&0#10|) #b1 #b0)))

(assert 

 (= |c:trex04.c@686@F@main@x?1!0&0#10| 

  (bvadd |c:trex04.c@673@F@main@d?1!0&0#5| |c:trex04.c@686@F@main@x?1!0&0#11|)))

(assert 

 (= |goto_symex::guard?0!0&0#11| 

  (ite 

   (bvslt #b00000000000000000000000000000000 |c:trex04.c@686@F@main@x?1!0&0#11|) #b1 #b0)))

(assert 

 (= |c:trex04.c@686@F@main@x?1!0&0#11| 

  (bvadd |c:trex04.c@673@F@main@d?1!0&0#5| |c:trex04.c@686@F@main@x?1!0&0#12|)))

(assert 

 (= |goto_symex::guard?0!0&0#12| 

  (ite 

   (bvslt #b00000000000000000000000000000000 |c:trex04.c@686@F@main@x?1!0&0#12|) #b1 #b0)))

(assert 

 (= |c:trex04.c@686@F@main@x?1!0&0#12| 

  (bvadd |c:trex04.c@673@F@main@d?1!0&0#5| |c:trex04.c@686@F@main@x?1!0&0#13|)))

(assert 

 (= |goto_symex::guard?0!0&0#13| 

  (ite 

   (bvslt #b00000000000000000000000000000000 |c:trex04.c@686@F@main@x?1!0&0#13|) #b1 #b0)))

(assert 

 (= |c:trex04.c@686@F@main@x?1!0&0#13| 

  (bvadd |c:trex04.c@673@F@main@d?1!0&0#5| |c:trex04.c@686@F@main@x?1!0&0#14|)))

(assert 

 (= |goto_symex::guard?0!0&0#14| 

  (ite 

   (bvslt #b00000000000000000000000000000000 |c:trex04.c@686@F@main@x?1!0&0#14|) #b1 #b0)))

(assert 

 (= |c:trex04.c@686@F@main@x?1!0&0#14| 

  (bvadd |c:trex04.c@673@F@main@d?1!0&0#5| |c:trex04.c@686@F@main@x?1!0&0#15|)))

(assert 

 (= |goto_symex::guard?0!0&0#15| 

  (ite 

   (bvslt #b00000000000000000000000000000000 |c:trex04.c@686@F@main@x?1!0&0#15|) #b1 #b0)))

(assert 

 (= |c:trex04.c@686@F@main@x?1!0&0#15| 

  (bvadd |c:trex04.c@673@F@main@d?1!0&0#5| |c:trex04.c@686@F@main@x?1!0&0#16|)))

(assert 

 (= |c:trex04.c@686@F@main@x?1!0&0#17| 

  (ite 

   (= #b1 |goto_symex::guard?0!0&0#15|) |c:trex04.c@686@F@main@x?1!0&0#16| |c:trex04.c@686@F@main@x?1!0&0#15|)))

(assert 

 (= |c:trex04.c@686@F@main@x?1!0&0#18| 

  (ite 

   (= #b1 |goto_symex::guard?0!0&0#14|) |c:trex04.c@686@F@main@x?1!0&0#17| |c:trex04.c@686@F@main@x?1!0&0#14|)))

(assert 

 (= |c:trex04.c@686@F@main@x?1!0&0#19| 

  (ite 

   (= #b1 |goto_symex::guard?0!0&0#13|) |c:trex04.c@686@F@main@x?1!0&0#18| |c:trex04.c@686@F@main@x?1!0&0#13|)))

(assert 

 (= |c:trex04.c@686@F@main@x?1!0&0#20| 

  (ite 

   (= #b1 |goto_symex::guard?0!0&0#12|) |c:trex04.c@686@F@main@x?1!0&0#19| |c:trex04.c@686@F@main@x?1!0&0#12|)))

(assert 

 (= |c:trex04.c@686@F@main@x?1!0&0#21| 

  (ite 

   (= #b1 |goto_symex::guard?0!0&0#11|) |c:trex04.c@686@F@main@x?1!0&0#20| |c:trex04.c@686@F@main@x?1!0&0#11|)))

(assert 

 (= |c:trex04.c@686@F@main@x?1!0&0#22| 

  (ite 

   (= #b1 |goto_symex::guard?0!0&0#10|) |c:trex04.c@686@F@main@x?1!0&0#21| |c:trex04.c@686@F@main@x?1!0&0#10|)))

(assert 

 (= |c:trex04.c@686@F@main@x?1!0&0#23| 

  (ite 

   (= #b1 |goto_symex::guard?0!0&0#9|) |c:trex04.c@686@F@main@x?1!0&0#22| |c:trex04.c@686@F@main@x?1!0&0#9|)))

(assert 

 (= |c:trex04.c@686@F@main@x?1!0&0#24| 

  (ite 

   (= #b1 |goto_symex::guard?0!0&0#8|) |c:trex04.c@686@F@main@x?1!0&0#23| |c:trex04.c@686@F@main@x?1!0&0#8|)))

(assert 

 (= |c:trex04.c@686@F@main@x?1!0&0#25| 

  (ite 

   (= #b1 |goto_symex::guard?0!0&0#7|) |c:trex04.c@686@F@main@x?1!0&0#24| |c:trex04.c@686@F@main@x?1!0&0#7|)))

(assert 

 (= |c:trex04.c@686@F@main@x?1!0&0#26| 

  (ite 

   (= #b1 |goto_symex::guard?0!0&0#6|) |c:trex04.c@686@F@main@x?1!0&0#25| |c:trex04.c@686@F@main@x?1!0&0#6|)))

(assert 

 (= |c:trex04.c@686@F@main@x?1!0&0#27| 

  (ite 

   (= #b1 |goto_symex::guard?0!0&0#5|) |c:trex04.c@686@F@main@x?1!0&0#26| |c:trex04.c@686@F@main@x?1!0&0#5|)))

(assert 

 (= |c:trex04.c@686@F@main@x?1!0&0#28| 

  (ite 

   (= #b1 |goto_symex::guard?0!0&0#4|) |c:trex04.c@686@F@main@x?1!0&0#27| |c:trex04.c@686@F@main@x?1!0&0#4|)))

(assert 

 (= |c:trex04.c@686@F@main@x?1!0&0#29| 

  (ite 

   (= #b1 |goto_symex::guard?0!0&0#3|) |c:trex04.c@686@F@main@x?1!0&0#28| |c:trex04.c@686@F@main@x?1!0&0#3|)))

(assert 

 (= |c:trex04.c@686@F@main@x?1!0&0#30| 

  (ite 

   (= #b1 |goto_symex::guard?0!0&0#2|) |c:trex04.c@686@F@main@x?1!0&0#29| |c:trex04.c@686@F@main@x?1!0&0#2|)))

(assert 

 (= |c:trex04.c@364@F@__VERIFIER_assert@cond?1!0&0#1| 

  (ite 

   (bvslt #b00000000000000000000000000000000 |c:trex04.c@686@F@main@x?1!0&0#30|) #b00000000000000000000000000000000 #b00000000000000000000000000000001)))

(assert 

 (= |goto_symex::guard?0!0&0#16| 

  (ite $e16 #b1 #b0)))

(assert (= 

 (bvnot 

  (bvand 

   (bvnot 

    (ite $e16 #b1 #b0)) 

   (bvand 

    (bvnot |goto_symex::guard?0!0&0#1|) |goto_symex::guard?0!0&0#16|))) #b1))

(assert (= 

 (bvnot 

  (bvand 

   (bvand $e15 |goto_symex::guard?0!0&0#15|) 

   (ite 

    (bvslt |c:trex04.c@686@F@main@x?1!0&0#15| #b00000000000000000000000000000001) #b1 #b0))) #b1))

(assert (= 

 (bvnot 

  (bvand $e15 

   (ite 

    (bvslt |c:trex04.c@686@F@main@x?1!0&0#14| #b00000000000000000000000000000001) #b1 #b0))) #b1))

(assert (= 

 (bvnot 

  (bvand $e14 

   (ite 

    (bvslt |c:trex04.c@686@F@main@x?1!0&0#13| #b00000000000000000000000000000001) #b1 #b0))) #b1))

(assert (= 

 (bvnot 

  (bvand $e13 

   (ite 

    (bvslt |c:trex04.c@686@F@main@x?1!0&0#12| #b00000000000000000000000000000001) #b1 #b0))) #b1))

(assert (= 

 (bvnot 

  (bvand $e12 

   (ite 

    (bvslt |c:trex04.c@686@F@main@x?1!0&0#11| #b00000000000000000000000000000001) #b1 #b0))) #b1))

(assert (= 

 (bvnot 

  (bvand $e11 

   (ite 

    (bvslt |c:trex04.c@686@F@main@x?1!0&0#10| #b00000000000000000000000000000001) #b1 #b0))) #b1))

(assert (= 

 (bvnot 

  (bvand $e10 

   (ite 

    (bvslt |c:trex04.c@686@F@main@x?1!0&0#9| #b00000000000000000000000000000001) #b1 #b0))) #b1))

(assert (= 

 (bvnot 

  (bvand $e9 

   (ite 

    (bvslt |c:trex04.c@686@F@main@x?1!0&0#8| #b00000000000000000000000000000001) #b1 #b0))) #b1))

(assert (= 

 (bvnot 

  (bvand $e8 

   (ite 

    (bvslt |c:trex04.c@686@F@main@x?1!0&0#7| #b00000000000000000000000000000001) #b1 #b0))) #b1))

(assert (= 

 (bvnot 

  (bvand $e7 

   (ite 

    (bvslt |c:trex04.c@686@F@main@x?1!0&0#6| #b00000000000000000000000000000001) #b1 #b0))) #b1))

(assert (= 

 (bvnot 

  (bvand $e6 

   (ite 

    (bvslt |c:trex04.c@686@F@main@x?1!0&0#5| #b00000000000000000000000000000001) #b1 #b0))) #b1))

(assert (= 

 (bvnot 

  (bvand $e5 

   (ite 

    (bvslt |c:trex04.c@686@F@main@x?1!0&0#4| #b00000000000000000000000000000001) #b1 #b0))) #b1))

(assert (= 

 (bvnot 

  (bvand $e4 

   (ite 

    (bvslt |c:trex04.c@686@F@main@x?1!0&0#3| #b00000000000000000000000000000001) #b1 #b0))) #b1))

(assert (= 

 (bvnot 

  (bvand $e3 

   (ite 

    (bvslt |c:trex04.c@686@F@main@x?1!0&0#2| #b00000000000000000000000000000001) #b1 #b0))) #b1))

(assert (= 

 (bvnot 

  (bvand 

   (bvnot |goto_symex::guard?0!0&0#1|) 

   (bvnot 

    (ite $e2 #b1 #b0)))) #b1))

(assert (= 

 (bvnot 

  (bvand 

   (bvnot 

    (ite $e1 #b1 #b0)) 

   (bvand 

    (bvnot |goto_symex::guard?0!0&0#1|) |c:trex04.c@771@F@main@c2?1!0&0#2|))) #b1))

(assert (= 

 (bvnot 

  (bvand 

   (bvnot 

    (ite $e1 #b1 #b0)) 

   (bvand 

    (bvnot |goto_symex::guard?0!0&0#1|) |c:trex04.c@771@F@main@c1?1!0&0#2|))) #b1))

(assert (= 

 (bvnot 

  (bvand 

   (bvnot 

    (ite $e1 #b1 #b0)) 

   (bvand 

    (bvnot |goto_symex::guard?0!0&0#1|) |c:trex04.c@771@F@main@c2?1!0&0#1|))) #b1))

(assert (= 

 (bvnot 

  (bvand 

   (bvnot 

    (ite $e1 #b1 #b0)) 

   (bvand 

    (bvnot |goto_symex::guard?0!0&0#1|) |c:trex04.c@771@F@main@c1?1!0&0#1|))) #b1))

(assert (= |execution_statet::guard_exec?0!0| #b1))

(assert (= |goto_symex::guard?0!0&0#16| #b1))

(assert (= 

 (bvnot |goto_symex::guard?0!0&0#1|) #b1))

(check-sat)

(exit)
